# Objective value = 2.1519400000000023e+03
I_0_0 1716
I_0_1 2.3519999999999986e+03
I_0_2 1.9929999999999982e+03
I_0_3 2.7109999999999986e+03
I_1_0 11
I_1_1 -2.7533531010703882e-14
I_1_2 1.0999999999999879e+01
I_1_3 0
I_2_0 26
I_2_1 -1.1093153916998603e-13
I_2_2 2.6000000000000046e+01
I_2_3 0
I_3_0 132
I_3_1 66
I_3_2 6.5999999999999986e+01
I_3_3 0
I_4_0 182
I_4_1 91
I_4_2 9.3999999999999787e+01
I_4_3 2.9999999999996576e+00
I_5_0 95
I_5_1 2.3973263038675714e-13
I_5_2 95
I_5_3 0
I_6_0 24
I_6_1 1.1999999999999895e+01
I_6_2 11.9999999999999
I_6_3 0
I_7_0 42
I_7_1 7.5495165674510645e-15
I_7_2 42
I_7_3 0
I_8_0 34
I_8_1 1.6999999999999677e+01
I_8_2 1.7000000000000021e+01
I_8_3 0
I_9_0 59
I_9_1 1.7763568394002505e-15
I_9_2 5.9000000000000007e+01
I_9_3 0
I_10_0 54
I_10_1 2.7000000000000007e+01
I_10_2 2.6999999999999972e+01
I_10_3 0
I_11_0 62
I_11_1 0
I_11_2 62
I_11_3 0
I_12_0 134
I_12_1 67
I_12_2 6.6999999999999972e+01
I_12_3 -3.2885230810245473e-14
I_13_0 10
I_13_1 -3.5527136788005009e-15
I_13_2 1.0000000000000004e+01
I_13_3 0
I_14_0 51
I_14_1 0
I_14_2 5.0999999999999993e+01
I_14_3 0
I_15_0 82
I_15_1 8.1999999999999673e+01
I_15_2 8.2000000000000085e+01
I_15_3 0
q_1_0 -2.7533531010703882e-14
q_1_1 2.1999999999999908e+01
q_1_2 1.2079226507921703e-13
q_2_0 -1.1093153916998603e-13
q_2_1 5.2000000000000156e+01
q_2_2 -4.6185277824406512e-14
q_3_0 0
q_3_1 6.5999999999999986e+01
q_3_2 1.0214051826551440e-14
q_4_0 -8.8817841970012523e-16
q_4_1 9.3999999999999787e+01
q_4_2 0
q_5_0 2.3973263038675714e-13
q_5_1 1.8999999999999977e+02
q_5_2 0
q_6_0 -1.0469403122215226e-13
q_6_1 1.2000000000000005e+01
q_6_2 9.8421271133020127e-14
q_7_0 7.5495165674510645e-15
q_7_1 84
q_7_2 0
q_8_0 -3.2250458374541565e-13
q_8_1 1.7000000000000345e+01
q_8_2 -2.6645352591003757e-15
q_9_0 1.7763568394002505e-15
q_9_1 118
q_9_2 -7.1054273576010019e-15
q_10_0 7.1054273576010019e-15
q_10_1 2.6999999999999964e+01
q_10_2 0
q_11_0 0
q_11_1 124
q_11_2 0
q_12_0 0
q_12_1 6.6999999999999972e+01
q_12_2 0
q_13_0 -3.5527136788005009e-15
q_13_1 2.0000000000000007e+01
q_13_2 -3.5527136788005009e-15
q_14_0 0
q_14_1 102
q_14_2 7.1054273576010019e-15
q_15_0 8.1999999999999673e+01
q_15_1 8.2000000000000412e+01
q_15_2 -8.5265128291212022e-14
y_0_0 1
y_0_1 1
y_0_2 0
y_1_0 -2.3314683517128287e-15
y_1_1 1
y_1_2 0
y_2_0 -4.2665976603840774e-15
y_2_1 1
y_2_2 0
y_3_0 0
y_3_1 1
y_3_2 0
y_4_0 0
y_4_1 9.9999999999999978e-01
y_4_2 0
y_5_0 0
y_5_1 1
y_5_2 0
y_6_0 -8.7568841067309222e-15
y_6_1 1
y_6_2 8.2017725944183439e-15
y_7_0 1.3877787807814457e-16
y_7_1 1
y_7_2 0
y_8_0 0
y_8_1 9.9999999999999978e-01
y_8_2 0
y_9_0 0
y_9_1 1
y_9_2 0
y_10_0 0
y_10_1 9.9999999999999978e-01
y_10_2 0
y_11_0 0
y_11_1 1
y_11_2 0
y_12_0 0
y_12_1 1
y_12_2 2.1684043449710089e-16
y_13_0 -3.3306690738754696e-16
y_13_1 1
y_13_2 -6.6613381477509392e-16
y_14_0 0
y_14_1 1
y_14_2 0
y_15_0 9.9999999999999634e-01
y_15_1 1
y_15_2 0
x_0_1_0 0
x_0_1_1 0
x_0_1_2 0
x_0_2_0 -5.9188765000328658e-15
x_0_2_1 2.9143354396410359e-16
x_0_2_2 0
x_0_3_0 0
x_0_3_1 0
x_0_3_2 0
x_0_4_0 0
x_0_4_1 0
x_0_4_2 0
x_0_5_0 5.4609095023749887e-15
x_0_5_1 1.0000000000000004e+00
x_0_5_2 0
x_0_6_0 0
x_0_6_1 0
x_0_6_2 0
x_0_7_0 7.9519724138776837e-15
x_0_7_1 2.4980018054066022e-16
x_0_7_2 0
x_0_8_0 0
x_0_8_1 0
x_0_8_2 0
x_0_9_0 1.0130785099704553e-15
x_0_9_1 0
x_0_9_2 0
x_0_10_0 0
x_0_10_1 0
x_0_10_2 0
x_0_11_0 0
x_0_11_1 0
x_0_11_2 0
x_0_12_0 0
x_0_12_1 0
x_0_12_2 0
x_0_13_0 0
x_0_13_1 0
x_0_13_2 0
x_0_14_0 0
x_0_14_1 0
x_0_14_2 0
x_0_15_0 1.9999999999999907e+00
x_0_15_1 9.9999999999999656e-01
x_0_15_2 0
x_1_2_0 0
x_1_2_1 0
x_1_2_2 0
x_1_3_0 0
x_1_3_1 0
x_1_3_2 0
x_1_4_0 0
x_1_4_1 0
x_1_4_2 0
x_1_5_0 0
x_1_5_1 0
x_1_5_2 0
x_1_6_0 0
x_1_6_1 0
x_1_6_2 0
x_1_7_0 0
x_1_7_1 0
x_1_7_2 0
x_1_8_0 8.8817841970012523e-16
x_1_8_1 9.9999999999999978e-01
x_1_8_2 5.5511151231257827e-17
x_1_9_0 0
x_1_9_1 0
x_1_9_2 0
x_1_10_0 0
x_1_10_1 1
x_1_10_2 -1.1102230246251565e-16
x_1_11_0 0
x_1_11_1 0
x_1_11_2 0
x_1_12_0 0
x_1_12_1 0
x_1_12_2 0
x_1_13_0 0
x_1_13_1 0
x_1_13_2 0
x_1_14_0 0
x_1_14_1 0
x_1_14_2 0
x_1_15_0 0
x_1_15_1 0
x_1_15_2 0
x_2_3_0 0
x_2_3_1 0
x_2_3_2 0
x_2_4_0 0
x_2_4_1 0
x_2_4_2 0
x_2_5_0 0
x_2_5_1 0
x_2_5_2 0
x_2_6_0 0
x_2_6_1 0
x_2_6_2 0
x_2_7_0 0
x_2_7_1 9.9999999999999689e-01
x_2_7_2 -1.2490009027033011e-15
x_2_8_0 0
x_2_8_1 0
x_2_8_2 0
x_2_9_0 0
x_2_9_1 0
x_2_9_2 0
x_2_10_0 0
x_2_10_1 0
x_2_10_2 0
x_2_11_0 0
x_2_11_1 0
x_2_11_2 0
x_2_12_0 0
x_2_12_1 0
x_2_12_2 0
x_2_13_0 0
x_2_13_1 0
x_2_13_2 0
x_2_14_0 -8.6736173798840355e-16
x_2_14_1 7.6327832942979512e-17
x_2_14_2 2.0816681711721685e-16
x_2_15_0 0
x_2_15_1 1.0000000000000033e+00
x_2_15_2 4.9960036108132044e-16
x_3_4_0 0
x_3_4_1 -4.4408920985006262e-16
x_3_4_2 0
x_3_5_0 0
x_3_5_1 0
x_3_5_2 0
x_3_6_0 0
x_3_6_1 1.0000000000000009e+00
x_3_6_2 0
x_3_7_0 0
x_3_7_1 0
x_3_7_2 0
x_3_8_0 0
x_3_8_1 0
x_3_8_2 0
x_3_9_0 0
x_3_9_1 0
x_3_9_2 0
x_3_10_0 0
x_3_10_1 0
x_3_10_2 0
x_3_11_0 0
x_3_11_1 1.6132928326584306e-16
x_3_11_2 0
x_3_12_0 0
x_3_12_1 1
x_3_12_2 0
x_3_13_0 0
x_3_13_1 0
x_3_13_2 0
x_3_14_0 0
x_3_14_1 0
x_3_14_2 0
x_3_15_0 0
x_3_15_1 0
x_3_15_2 0
x_4_5_0 0
x_4_5_1 0
x_4_5_2 0
x_4_6_0 0
x_4_6_1 0
x_4_6_2 0
x_4_7_0 0
x_4_7_1 0
x_4_7_2 0
x_4_8_0 0
x_4_8_1 0
x_4_8_2 0
x_4_9_0 0
x_4_9_1 0
x_4_9_2 0
x_4_10_0 0
x_4_10_1 0
x_4_10_2 0
x_4_11_0 0
x_4_11_1 1
x_4_11_2 0
x_4_12_0 0
x_4_12_1 0
x_4_12_2 0
x_4_13_0 0
x_4_13_1 0
x_4_13_2 0
x_4_14_0 0
x_4_14_1 9.9999999999999944e-01
x_4_14_2 0
x_4_15_0 0
x_4_15_1 0
x_4_15_2 0
x_5_6_0 0
x_5_6_1 0
x_5_6_2 0
x_5_7_0 0
x_5_7_1 0
x_5_7_2 0
x_5_8_0 0
x_5_8_1 0
x_5_8_2 0
x_5_9_0 0
x_5_9_1 1
x_5_9_2 0
x_5_10_0 0
x_5_10_1 0
x_5_10_2 0
x_5_11_0 0
x_5_11_1 0
x_5_11_2 0
x_5_12_0 0
x_5_12_1 0
x_5_12_2 0
x_5_13_0 0
x_5_13_1 0
x_5_13_2 0
x_5_14_0 0
x_5_14_1 -4.9266146717741321e-16
x_5_14_2 0
x_5_15_0 0
x_5_15_1 0
x_5_15_2 0
x_6_7_0 -5.3013149425851225e-15
x_6_7_1 0
x_6_7_2 2.0122792321330962e-15
x_6_8_0 3.1086244689504640e-15
x_6_8_1 0
x_6_8_2 0
x_6_9_0 0
x_6_9_1 0
x_6_9_2 0
x_6_10_0 0
x_6_10_1 0
x_6_10_2 1.3364309658925322e-14
x_6_11_0 0
x_6_11_1 0
x_6_11_2 0
x_6_12_0 0
x_6_12_1 0
x_6_12_2 0
x_6_13_0 -4.4408920985006262e-16
x_6_13_1 9.9999999999999978e-01
x_6_13_2 8.8817841970012523e-16
x_6_14_0 0
x_6_14_1 0
x_6_14_2 0
x_6_15_0 0
x_6_15_1 0
x_6_15_2 0
x_7_8_0 0
x_7_8_1 9.9999999999999978e-01
x_7_8_2 0
x_7_9_0 0
x_7_9_1 0
x_7_9_2 0
x_7_10_0 0
x_7_10_1 0
x_7_10_2 0
x_7_11_0 0
x_7_11_1 0
x_7_11_2 0
x_7_12_0 0
x_7_12_1 0
x_7_12_2 0
x_7_13_0 0
x_7_13_1 0
x_7_13_2 0
x_7_14_0 0
x_7_14_1 0
x_7_14_2 0
x_7_15_0 0
x_7_15_1 0
x_7_15_2 0
x_8_9_0 0
x_8_9_1 0
x_8_9_2 0
x_8_10_0 1.0214051826551415e-14
x_8_10_1 0
x_8_10_2 -5.5511151231257827e-17
x_8_11_0 0
x_8_11_1 0
x_8_11_2 0
x_8_12_0 0
x_8_12_1 0
x_8_12_2 0
x_8_13_0 0
x_8_13_1 0
x_8_13_2 0
x_8_14_0 0
x_8_14_1 0
x_8_14_2 0
x_8_15_0 0
x_8_15_1 0
x_8_15_2 0
x_9_10_0 0
x_9_10_1 0
x_9_10_2 0
x_9_11_0 0
x_9_11_1 0
x_9_11_2 0
x_9_12_0 0
x_9_12_1 0
x_9_12_2 0
x_9_13_0 0
x_9_13_1 0
x_9_13_2 0
x_9_14_0 0
x_9_14_1 1
x_9_14_2 0
x_9_15_0 0
x_9_15_1 0
x_9_15_2 0
x_10_11_0 0
x_10_11_1 0
x_10_11_2 0
x_10_12_0 0
x_10_12_1 0
x_10_12_2 0
x_10_13_0 0
x_10_13_1 9.9999999999999956e-01
x_10_13_2 0
x_10_14_0 0
x_10_14_1 0
x_10_14_2 0
x_10_15_0 0
x_10_15_1 0
x_10_15_2 0
x_11_12_0 0
x_11_12_1 1
x_11_12_2 3.2265856653168612e-16
x_11_13_0 0
x_11_13_1 0
x_11_13_2 0
x_11_14_0 0
x_11_14_1 0
x_11_14_2 -2.1163626406917047e-16
x_11_15_0 0
x_11_15_1 0
x_11_15_2 0
x_12_13_0 0
x_12_13_1 0
x_12_13_2 0
x_12_14_0 0
x_12_14_1 0
x_12_14_2 0
x_12_15_0 0
x_12_15_1 0
x_12_15_2 0
x_13_14_0 0
x_13_14_1 0
x_13_14_2 0
x_13_15_0 0
x_13_15_1 0
x_13_15_2 0
x_14_15_0 0
x_14_15_1 0
x_14_15_2 0
